SDVRPTW/PR13.sol
Route #1: 71 66 121 132 92 83 113 81 91 128 40 77
Route #2: 44 15 5 76 57 139 126 85
Route #3: 131 97 142 42 112
Route #4:
Route #5: 101 108 67 14 87 82 4 45 24 94 37 52 116
Route #6: 111 26 127 124 88 11 130 49 123 51
Route #7: 63 56 103 143 102 93 141 28 140 84 100 96
Route #8: 62 60 9 22 64 133 74 46 21
Route #9: 135 118 10 137 72 78 79 119 136 68
Route #10: 138 99 12 16 34 80 106 98 18 3 38 73 29
Route #11: 117 115 122 32 43 31 48 30 55 36 120 39
Route #12:
Route #13: 25 2 90 107 114 104 50 61 54 89 129 75
Route #14: 110 27 69 59 17 19 144 23 47 33 65 1 125 86
Route #15: 13 109 53 58 20 8 6 7 105 70 95 41 35 134
Route #16:
Cost: 2774297
